0,35,71,65,66,0
0,8,46,45,17,86,93,0
0,44,38,14,42,87,57,15,43,0
0,31,88,7,82,48,47,36,49,64,0
0,30,51,9,81,78,34,29,24,26,0
0,62,19,11,63,90,32,20,10,70,0
0,2,41,22,75,23,67,25,55,4,54,0
0,52,27,28,53,40,21,73,72,74,56,39,0
0,69,76,12,80,68,77,3,79,33,50,1,0
0,95,92,94,6,18,60,83,84,5,96,89,0
0,99,59,98,85,61,16,91,100,37,97,13,58,0
